-1 37 17 25 47 33 42 68 50 76 16 31 
37 -1 18 100 62 76 4 4 93 41 82 56 
17 18 -1 6 81 70 59 22 4 93 96 61 
25 100 6 -1 47 94 45 23 13 2 70 74 
47 62 81 47 -1 54 5 79 37 72 100 82 
33 76 70 94 54 -1 34 54 2 50 57 38 
42 4 59 45 5 34 -1 81 32 35 9 76 
68 4 22 23 79 54 81 -1 75 51 81 73 
50 93 4 13 37 2 32 75 -1 72 28 65 
76 41 93 2 72 50 35 51 72 -1 53 41 
16 82 96 70 100 57 9 81 28 53 -1 94 
31 56 61 74 82 38 76 73 65 41 94 -1 
